NAME : X_18_seed_123_id_19
TYPE : CVRP
DIMENSION : 181
EDGE_WEIGHT_TYPE : EUC_2D
CAPACITY : 8
NODE_COORD_SECTION
1	549	482
2	760	60
3	494	980
4	164	326
5	855	114
6	401	438
7	313	764
8	347	805
9	239	278
10	325	449
11	522	953
12	827	134
13	797	217
14	225	419
15	478	405
16	245	845
17	166	343
18	837	26
19	225	165
20	426	948
21	534	22
22	785	63
23	433	949
24	837	138
25	798	114
26	510	961
27	820	47
28	128	324
29	154	264
30	547	995
31	471	985
32	774	48
33	737	130
34	124	283
35	182	694
36	413	449
37	353	436
38	191	363
39	779	46
40	365	472
41	779	155
42	430	498
43	87	213
44	288	821
45	781	72
46	858	203
47	575	995
48	519	970
49	488	320
50	915	88
51	269	231
52	174	748
53	664	74
54	770	14
55	330	744
56	336	506
57	302	779
58	193	324
59	874	155
60	122	340
61	633	83
62	164	323
63	770	162
64	339	395
65	690	167
66	481	998
67	376	753
68	255	300
69	505	979
70	296	781
71	355	663
72	145	388
73	537	974
74	398	411
75	437	946
76	153	280
77	346	770
78	782	47
79	769	72
80	143	381
81	976	127
82	504	955
83	284	792
84	807	30
85	800	24
86	824	112
87	416	940
88	881	148
89	425	905
90	776	31
91	394	919
92	502	424
93	329	282
94	508	955
95	404	683
96	893	114
97	39	533
98	238	360
99	446	543
100	461	933
101	120	296
102	399	474
103	201	303
104	505	935
105	799	279
106	103	229
107	346	333
108	352	731
109	453	422
110	409	802
111	167	204
112	777	157
113	238	742
114	407	457
115	453	933
116	904	3
117	393	913
118	807	115
119	161	366
120	379	402
121	756	51
122	520	939
123	309	771
124	389	428
125	162	356
126	505	993
127	390	372
128	204	372
129	111	163
130	76	347
131	854	119
132	487	365
133	788	67
134	283	509
135	718	62
136	880	121
137	497	976
138	560	451
139	768	45
140	281	339
141	852	130
142	765	12
143	822	121
144	608	982
145	647	30
146	23	451
147	564	938
148	173	324
149	409	280
150	98	403
151	162	310
152	645	104
153	757	85
154	599	956
155	440	895
156	191	389
157	496	976
158	857	97
159	178	378
160	171	269
161	625	63
162	393	426
163	769	125
164	365	818
165	40	280
166	761	99
167	288	636
168	142	827
169	747	61
170	536	997
171	471	997
172	131	326
173	702	16
174	853	99
175	865	154
176	185	292
177	652	101
178	176	305
179	757	56
180	845	153
181	806	63
DEMAND_SECTION
1	0
2	1
3	1
4	1
5	1
6	1
7	1
8	1
9	1
10	1
11	1
12	1
13	1
14	1
15	1
16	1
17	1
18	1
19	1
20	1
21	1
22	1
23	1
24	1
25	1
26	1
27	1
28	1
29	1
30	1
31	1
32	1
33	1
34	1
35	1
36	1
37	1
38	1
39	1
40	1
41	1
42	1
43	1
44	1
45	1
46	1
47	1
48	1
49	1
50	1
51	1
52	1
53	1
54	1
55	1
56	1
57	1
58	1
59	1
60	1
61	1
62	1
63	1
64	1
65	1
66	1
67	1
68	1
69	1
70	1
71	1
72	1
73	1
74	1
75	1
76	1
77	1
78	1
79	1
80	1
81	1
82	1
83	1
84	1
85	1
86	1
87	1
88	1
89	1
90	1
91	1
92	1
93	1
94	1
95	1
96	1
97	1
98	1
99	1
100	1
101	1
102	1
103	1
104	1
105	1
106	1
107	1
108	1
109	1
110	1
111	1
112	1
113	1
114	1
115	1
116	1
117	1
118	1
119	1
120	1
121	1
122	1
123	1
124	1
125	1
126	1
127	1
128	1
129	1
130	1
131	1
132	1
133	1
134	1
135	1
136	1
137	1
138	1
139	1
140	1
141	1
142	1
143	1
144	1
145	1
146	1
147	1
148	1
149	1
150	1
151	1
152	1
153	1
154	1
155	1
156	1
157	1
158	1
159	1
160	1
161	1
162	1
163	1
164	1
165	1
166	1
167	1
168	1
169	1
170	1
171	1
172	1
173	1
174	1
175	1
176	1
177	1
178	1
179	1
180	1
181	1
DEPOT_SECTION
1
-1
EOF
